
  32    4
  10   10   10   10

   0   0   0   0   0  12 2 4 6 7 8 9 10 11 14 15 16 22 
   4   0   1   1   1   5 29 28 21 13 3 
   3   0   3   4   5   6 31 30 27 20 17 5 
   1   0   5   6   5   5 27 26 20 18 17 
   3   1   9   1   0   4 26 25 19 12 
   3   0   2   2   3   4 29 21 20 17 
   6   0   3   3   4   5 28 26 25 24 18 
   5   4   6   0   3   2 31 12 
   2   0   2   4   3   3 29 26 25 
  10   4   3   0   4   3 28 27 23 
   5   3   1   2   0   3 27 26 24 
   1   5   0   4   5   2 24 18 
   8   5   5   0   4   2 23 19 
   1   0   6   4   6   2 30 21 
  10   0   5   6   5   2 26 18 
   3   2   3   0   3   2 25 19 
   8   3   0   7   3   2 25 23 
   1   4   0   5   6   1 23 
   2   6   3   5   0   1 24 
   8   4   5   0   6   1 23 
   8   3   4   3   0   1 24 
   1   6   0   6   8   1 25 
   1   0   3   6   4   1 32
  10   0   5   4   3   1 32
   7   5   9   0   4   1 32
   5   2   2   3   0   1 32
   3   5   0   3   1   1 32
   6   6   3   2   0   1 32
   7   0   6   6   3   1 32
   2   0   3   4   5   1 32
   8   0   3   5   2   1 32
   0   0   0   0   0   0 
